%%%mzn-stat: initTime=0.004185074
%%%mzn-stat: objective=335
%%%mzn-stat: nodes=1699
%%%mzn-stat: restarts=0
%%%mzn-stat: peakDepth=103
%%%mzn-stat: solveTime=0.129741136
%%%mzn-stat: variables=386
%%%mzn-stat: propagators=453
%%%mzn-stat: failures=1159
%%%mzn-stat: propagations=174380
%%%mzn-stat: nogoods=1159
%%%mzn-stat: AverageConflictSize=8.71009490940466
%%%mzn-stat: NumUnitNogoodsLearned=334
%%%mzn-stat: AverageLearnedNogoodLength=29.26574633304573
%%%mzn-stat: AverageBacktrackAmount=0
%%%mzn-stat: AverageLbd=4.996548748921484
%%%mzn-stat-end
maxleg = 335;
succ = array1d(1..20,[10, 5, 11, 12, 15, 13, 1, 6, 19, 4, 9, 18, 7, 8, 14, 17, 3, 16, 20, 2]);
% time elapsed: 0.61 s
----------
==========
% time elapsed: 0.61 s
%%%mzn-stat: initTime=0.004185074
%%%mzn-stat: objective=335
%%%mzn-stat: nodes=1699
%%%mzn-stat: restarts=0
%%%mzn-stat: peakDepth=103
%%%mzn-stat: solveTime=0.129744604
%%%mzn-stat: variables=386
%%%mzn-stat: propagators=453
%%%mzn-stat: failures=1159
%%%mzn-stat: propagations=174380
%%%mzn-stat: nogoods=1159
%%%mzn-stat: AverageConflictSize=8.71009490940466
%%%mzn-stat: NumUnitNogoodsLearned=334
%%%mzn-stat: AverageLearnedNogoodLength=29.26574633304573
%%%mzn-stat: AverageBacktrackAmount=0
%%%mzn-stat: AverageLbd=4.996548748921484
%%%mzn-stat-end
